p edge 18 36
e 1 8
e 1 9
e 2 3
e 2 14
e 2 16
e 2 4
e 2 8
e 2 7
e 3 10
e 3 12
e 3 15
e 3 9
e 3 14
e 3 13
e 4 16
e 4 8
e 4 7
e 4 17
e 5 16
e 5 9
e 6 13
e 6 11
e 6 14
e 6 17
e 7 17
e 7 16
e 7 8
e 8 16
e 8 9
e 8 13
e 9 14
e 10 12
e 14 15
e 16 18
e 16 17
e 17 18
